Pt  S 
 1.0000000000000000
     6.8034955721305490    0.0000000000000000    0.0000000000000000
     0.0000000000000000   16.6650926190045503    0.0000000000000000
     0.0000000000000000    0.0000000000000000   26.8483630485562941
 Pt  S  
  72   4
Selective dynamics
Cartesian
  4.4670303679078369  1.3887650614271589 16.6722309899452270   T   T   T
  4.4670292728080367  4.1662732799181974 16.6722273236545853   T   T   T
  4.4670300958121656  6.9437799303513055 16.6722270890303328   T   T   T
  4.4670296475793227  9.7213105883902227 16.6722262777961312   T   T   T
  4.4670288772388753 12.4988206296281845 16.6722262894302524   T   T   T
  4.4670304743324296 15.2763280254415079 16.6722308704030482   T   T   T
  2.2317017325756487 -0.0000001957200161 16.0460963523927838   T   T   T
  2.2316916533502829  2.7775158560218425 16.0460987563087834   T   T   T
  2.2316920498003929  5.5550304652551912 16.0460959226807098   T   T   T
  2.2317022283377770  8.3325451285711818 16.0460908159898956   T   T   T
  2.2316919033250491 11.1100622254060255 16.0460958113624841   T   T   T
  2.2316918843322386 13.8875778492650834 16.0460984423446575   T   T   T
  0.0249157044356834  1.3887596082777209 15.3752656524815272   T   T   T
  0.0249216010782396  4.1662740270986962 15.3752380293750779   T   T   T
  0.0249160978908405  6.9437858604452405 15.3752607311208784   T   T   T
  0.0249162419312225  9.7213048666582598 15.3752611839517641   T   T   T
  0.0249218255405621 12.4988202586711399 15.3752379581010388   T   T   T
  0.0249158263242342 15.2763331232724280 15.3752652112584531   T   T   T
  4.5889759687828482 -0.0000002897248681 14.3483563010889590   T   T   T
  4.5889715059959437  2.7775163066011959 14.3483625889975670   T   T   T
  4.5889719343223989  5.5550314525249940 14.3483615694089881   T   T   T
  4.5889761399775360  8.3325456829140272 14.3483556853890359   T   T   T
  4.5889718317293502 11.1100615278947092 14.3483630485562959   T   T   T
  4.5889719023224123 13.8875767081813208 14.3483626311592456   T   T   T
  2.2572953945105616  1.3887609806412096 13.6117725494838808   T   T   T
  2.2573015724794301  4.1662747973733145 13.6117696670017221   T   T   T
  2.2572962610748135  6.9437851428997694 13.6117728019653210   T   T   T
  2.2572953617674072  9.7213059446444046 13.6117739352999951   T   T   T
  2.2573007450849780 12.4988194539374113 13.6117704659967806   T   T   T
  2.2572956231687544 15.2763313869523891 13.6117721757163022   T   T   T
  0.0250985870644082 -0.0000006632039998 12.8162131333175608   T   T   T
  0.0250927162248093  2.7775090379982155 12.8162257305585747   T   T   T
  0.0250921003258606  5.5550390712167905 12.8162266242701577   T   T   T
  0.0250983860420921  8.3325450998796153 12.8162166579546231   T   T   T
  0.0250927541093992 11.1100543233858424 12.8162274056176209   T   T   T
  0.0250922577383848 13.8875845297880609 12.8162249000919690   T   T   T
  4.5356637147537002  1.3887577182503794 12.0089982123551344   F   F   F
  4.5356637147537002  4.1662731547511376 12.0089982123551344   F   F   F
  4.5356637147537002  6.9437885912518960 12.0089982123551344   F   F   F
  4.5356637147537002  9.7213040277526552 12.0089982123551344   F   F   F
  4.5356637147537002 12.4988194642534136 12.0089982123551344   F   F   F
  4.5356637147537002 15.2763349007541720 12.0089982123551344   F   F   F
  2.2678318573768501  0.0000000000000002 11.2071985698841061   F   F   F
  2.2678318573768501  2.7775154365007584 11.2071985698841061   F   F   F
  2.2678318573768501  5.5550308730015168 11.2071985698841061   F   F   F
  2.2678318573768501  8.3325463095022752 11.2071985698841061   F   F   F
  2.2678318573768501 11.1100617460030335 11.2071985698841061   F   F   F
  2.2678318573768501 13.8875771825037919 11.2071985698841061   F   F   F
 -0.0000000000000001  1.3887577182503792 10.4053989274130796   F   F   F
 -0.0000000000000001  4.1662731547511376 10.4053989274130796   F   F   F
 -0.0000000000000001  6.9437885912518960 10.4053989274130796   F   F   F
 -0.0000000000000001  9.7213040277526552 10.4053989274130796   F   F   F
 -0.0000000000000001 12.4988194642534118 10.4053989274130796   F   F   F
 -0.0000000000000001 15.2763349007541720 10.4053989274130796   F   F   F
  4.5356637147537002  0.0000000000000002  9.6035992849420531   F   F   F
  4.5356637147537002  2.7775154365007588  9.6035992849420531   F   F   F
  4.5356637147537002  5.5550308730015168  9.6035992849420531   F   F   F
  4.5356637147537002  8.3325463095022752  9.6035992849420531   F   F   F
  4.5356637147537002 11.1100617460030335  9.6035992849420531   F   F   F
  4.5356637147537002 13.8875771825037919  9.6035992849420531   F   F   F
  2.2678318573768501  1.3887577182503792  8.8017996424710265   F   F   F
  2.2678318573768501  4.1662731547511376  8.8017996424710265   F   F   F
  2.2678318573768501  6.9437885912518960  8.8017996424710265   F   F   F
  2.2678318573768501  9.7213040277526552  8.8017996424710265   F   F   F
  2.2678318573768501 12.4988194642534118  8.8017996424710265   F   F   F
  2.2678318573768501 15.2763349007541720  8.8017996424710265   F   F   F
  0.0000000000000000  0.0000000000000000  8.0000000000000000   F   F   F
  0.0000000000000000  2.7775154365007584  8.0000000000000000   F   F   F
  0.0000000000000000  5.5550308730015168  8.0000000000000000   F   F   F
  0.0000000000000000  8.3325463095022752  8.0000000000000000   F   F   F
  0.0000000000000000 11.1100617460030335  8.0000000000000000   F   F   F
  0.0000000000000000 13.8875771825037919  8.0000000000000000   F   F   F
  4.5889759687828482 -0.0000002897248681 18.8483563010889590   T   T   T
  4.5889715059959437  2.7775163066011959 18.8483625889975670   T   T   T
  4.5889719343223989  5.5550314525249940 18.8483615694089863   T   T   T
  4.5889718317293502 11.1100615278947092 18.8483630485562941   T   T   T
